p cnf 256 1
256 0
w 1 0.558047
w 2 1 0.655726
w 2 -1 0.878391
w 3 2 0.795867
w 3 -2 0.824031
w 4 3 0.185346
w 4 -3 0.302463
w 5 4 0.922459
w 5 -4 0.477771
w 6 5 1
w 6 -5 0
w 7 6 0.865329
w 7 -6 0.91828
w 8 7 0.244681
w 8 -7 0.0742032
w 9 8 0.703662
w 9 -8 0.614609
w 10 9 0
w 10 -9 1
w 11 10 0.721888
w 11 -10 0.554234
w 12 11 1
w 12 -11 0
w 13 12 1
w 13 -12 0
w 14 13 0.990672
w 14 -13 0.8982
w 15 14 0.814702
w 15 -14 0.601241
w 16 15 0.117165
w 16 -15 0.342472
w 17 1 0.594936
w 17 -1 0.423398
w 18 17 2 0.340079
w 18 17 -2 0.288726
w 18 -17 2 0.890172
w 18 -17 -2 0.203173
w 19 18 3 0.964375
w 19 18 -3 0.0418289
w 19 -18 3 0.237069
w 19 -18 -3 0.578984
w 20 19 4 1
w 20 19 -4 0
w 20 -19 4 0
w 20 -19 -4 0
w 21 20 5 0.269386
w 21 20 -5 0.802787
w 21 -20 5 0.655259
w 21 -20 -5 0.212031
w 22 21 6 0.553459
w 22 21 -6 0.950542
w 22 -21 6 0.608161
w 22 -21 -6 0.1547
w 23 22 7 0.725326
w 23 22 -7 0.497172
w 23 -22 7 0.720716
w 23 -22 -7 0.320263
w 24 23 8 0.692609
w 24 23 -8 0.660342
w 24 -23 8 0.209296
w 24 -23 -8 0.582781
w 25 24 9 0.742703
w 25 24 -9 0.547156
w 25 -24 9 0.905343
w 25 -24 -9 0.979772
w 26 25 10 0
w 26 25 -10 1
w 26 -25 10 1
w 26 -25 -10 1
w 27 26 11 0.174166
w 27 26 -11 0.417777
w 27 -26 11 0.609337
w 27 -26 -11 0.829425
w 28 27 12 0.402795
w 28 27 -12 0.382884
w 28 -27 12 0.58035
w 28 -27 -12 0.0109563
w 29 28 13 0.45475
w 29 28 -13 0.736283
w 29 -28 13 0.0347561
w 29 -28 -13 0.175466
w 30 29 14 1
w 30 29 -14 0
w 30 -29 14 1
w 30 -29 -14 1
w 31 30 15 0.907324
w 31 30 -15 0.998012
w 31 -30 15 0.485745
w 31 -30 -15 0.887096
w 32 31 16 1
w 32 31 -16 1
w 32 -31 16 1
w 32 -31 -16 0
w 33 17 0.876292
w 33 -17 0.217836
w 34 33 18 0
w 34 33 -18 0
w 34 -33 18 0
w 34 -33 -18 1
w 35 34 19 1
w 35 34 -19 0
w 35 -34 19 1
w 35 -34 -19 0
w 36 35 20 0.0582098
w 36 35 -20 0.625607
w 36 -35 20 0.616268
w 36 -35 -20 0.926284
w 37 36 21 0
w 37 36 -21 1
w 37 -36 21 1
w 37 -36 -21 1
w 38 37 22 1
w 38 37 -22 0
w 38 -37 22 0
w 38 -37 -22 0
w 39 38 23 0
w 39 38 -23 0
w 39 -38 23 1
w 39 -38 -23 1
w 40 39 24 0.783441
w 40 39 -24 0.925847
w 40 -39 24 0.62899
w 40 -39 -24 0.872043
w 41 40 25 1
w 41 40 -25 1
w 41 -40 25 0
w 41 -40 -25 1
w 42 41 26 0
w 42 41 -26 0
w 42 -41 26 1
w 42 -41 -26 0
w 43 42 27 0.55633
w 43 42 -27 0.598219
w 43 -42 27 0.921825
w 43 -42 -27 0.244544
w 44 43 28 0.330465
w 44 43 -28 0.819854
w 44 -43 28 0.472675
w 44 -43 -28 0.390772
w 45 44 29 0
w 45 44 -29 1
w 45 -44 29 0
w 45 -44 -29 0
w 46 45 30 0.535271
w 46 45 -30 0.255188
w 46 -45 30 0.222601
w 46 -45 -30 0.407314
w 47 46 31 0.684369
w 47 46 -31 0.905544
w 47 -46 31 0.845615
w 47 -46 -31 0.715199
w 48 47 32 1
w 48 47 -32 0
w 48 -47 32 0
w 48 -47 -32 0
w 49 33 1
w 49 -33 0
w 50 49 34 0.29239
w 50 49 -34 0.64103
w 50 -49 34 0.933079
w 50 -49 -34 0.622855
w 51 50 35 0
w 51 50 -35 1
w 51 -50 35 0
w 51 -50 -35 1
w 52 51 36 1
w 52 51 -36 1
w 52 -51 36 0
w 52 -51 -36 1
w 53 52 37 0
w 53 52 -37 0
w 53 -52 37 0
w 53 -52 -37 1
w 54 53 38 1
w 54 53 -38 0
w 54 -53 38 1
w 54 -53 -38 1
w 55 54 39 1
w 55 54 -39 1
w 55 -54 39 0
w 55 -54 -39 0
w 56 55 40 0.765547
w 56 55 -40 0.896004
w 56 -55 40 0.622208
w 56 -55 -40 0.698625
w 57 56 41 0.0830921
w 57 56 -41 0.104379
w 57 -56 41 0.532487
w 57 -56 -41 0.94228
w 58 57 42 0
w 58 57 -42 1
w 58 -57 42 1
w 58 -57 -42 0
w 59 58 43 0.382889
w 59 58 -43 0.240657
w 59 -58 43 0.289001
w 59 -58 -43 0.157163
w 60 59 44 0.435215
w 60 59 -44 0.836981
w 60 -59 44 0.00292402
w 60 -59 -44 0.296628
w 61 60 45 0.447274
w 61 60 -45 0.529677
w 61 -60 45 0.166206
w 61 -60 -45 0.253113
w 62 61 46 0
w 62 61 -46 1
w 62 -61 46 0
w 62 -61 -46 0
w 63 62 47 0.852684
w 63 62 -47 0.821664
w 63 -62 47 0.0806414
w 63 -62 -47 0.794964
w 64 63 48 0
w 64 63 -48 0
w 64 -63 48 1
w 64 -63 -48 1
w 65 49 0
w 65 -49 1
w 66 65 50 0.499033
w 66 65 -50 0.561885
w 66 -65 50 0.208897
w 66 -65 -50 0.934248
w 67 66 51 1
w 67 66 -51 0
w 67 -66 51 0
w 67 -66 -51 0
w 68 67 52 0.146588
w 68 67 -52 0.912208
w 68 -67 52 0.893844
w 68 -67 -52 0.293972
w 69 68 53 0.923139
w 69 68 -53 0.0635642
w 69 -68 53 0.648153
w 69 -68 -53 0.471293
w 70 69 54 0.469817
w 70 69 -54 0.551934
w 70 -69 54 0.711213
w 70 -69 -54 0.47572
w 71 70 55 1
w 71 70 -55 0
w 71 -70 55 0
w 71 -70 -55 0
w 72 71 56 0.208998
w 72 71 -56 0.803155
w 72 -71 56 0.464159
w 72 -71 -56 0.417895
w 73 72 57 0.863025
w 73 72 -57 0.629716
w 73 -72 57 0.96828
w 73 -72 -57 0.843407
w 74 73 58 0
w 74 73 -58 0
w 74 -73 58 0
w 74 -73 -58 1
w 75 74 59 0
w 75 74 -59 0
w 75 -74 59 1
w 75 -74 -59 1
w 76 75 60 0
w 76 75 -60 1
w 76 -75 60 0
w 76 -75 -60 1
w 77 76 61 0.0690818
w 77 76 -61 0.223129
w 77 -76 61 0.697957
w 77 -76 -61 0.373203
w 78 77 62 0
w 78 77 -62 1
w 78 -77 62 0
w 78 -77 -62 1
w 79 78 63 0.452588
w 79 78 -63 0.954566
w 79 -78 63 0.882041
w 79 -78 -63 0.295995
w 80 79 64 0
w 80 79 -64 1
w 80 -79 64 1
w 80 -79 -64 1
w 81 65 0.576282
w 81 -65 0.779366
w 82 81 66 0.356321
w 82 81 -66 0.796475
w 82 -81 66 0.181269
w 82 -81 -66 0.606177
w 83 82 67 1
w 83 82 -67 1
w 83 -82 67 0
w 83 -82 -67 1
w 84 83 68 0.062346
w 84 83 -68 0.598546
w 84 -83 68 0.680284
w 84 -83 -68 0.969301
w 85 84 69 0.269847
w 85 84 -69 0.294152
w 85 -84 69 0.688666
w 85 -84 -69 0.722434
w 86 85 70 1
w 86 85 -70 1
w 86 -85 70 1
w 86 -85 -70 0
w 87 86 71 0
w 87 86 -71 1
w 87 -86 71 0
w 87 -86 -71 0
w 88 87 72 0
w 88 87 -72 0
w 88 -87 72 1
w 88 -87 -72 1
w 89 88 73 1
w 89 88 -73 0
w 89 -88 73 0
w 89 -88 -73 1
w 90 89 74 1
w 90 89 -74 0
w 90 -89 74 1
w 90 -89 -74 1
w 91 90 75 0.728189
w 91 90 -75 0.312037
w 91 -90 75 0.0466775
w 91 -90 -75 0.416854
w 92 91 76 0
w 92 91 -76 1
w 92 -91 76 0
w 92 -91 -76 1
w 93 92 77 0
w 93 92 -77 1
w 93 -92 77 0
w 93 -92 -77 0
w 94 93 78 1
w 94 93 -78 0
w 94 -93 78 0
w 94 -93 -78 0
w 95 94 79 0.581125
w 95 94 -79 0.126231
w 95 -94 79 0.126087
w 95 -94 -79 0.38815
w 96 95 80 0.480825
w 96 95 -80 0.750056
w 96 -95 80 0.630333
w 96 -95 -80 0.434109
w 97 81 0.382859
w 97 -81 0.162298
w 98 97 82 1
w 98 97 -82 0
w 98 -97 82 0
w 98 -97 -82 1
w 99 98 83 0.191657
w 99 98 -83 0.512423
w 99 -98 83 0.735854
w 99 -98 -83 0.548976
w 100 99 84 1
w 100 99 -84 0
w 100 -99 84 1
w 100 -99 -84 0
w 101 100 85 0.579017
w 101 100 -85 0.868637
w 101 -100 85 0.800923
w 101 -100 -85 0.160142
w 102 101 86 0.927011
w 102 101 -86 0.548291
w 102 -101 86 0.841976
w 102 -101 -86 0.407836
w 103 102 87 1
w 103 102 -87 1
w 103 -102 87 0
w 103 -102 -87 0
w 104 103 88 1
w 104 103 -88 1
w 104 -103 88 1
w 104 -103 -88 0
w 105 104 89 0
w 105 104 -89 1
w 105 -104 89 0
w 105 -104 -89 0
w 106 105 90 0.206088
w 106 105 -90 0.854938
w 106 -105 90 0.23163
w 106 -105 -90 0.304984
w 107 106 91 0.810647
w 107 106 -91 0.173621
w 107 -106 91 0.460091
w 107 -106 -91 0.970788
w 108 107 92 0
w 108 107 -92 1
w 108 -107 92 0
w 108 -107 -92 0
w 109 108 93 0.482775
w 109 108 -93 0.636883
w 109 -108 93 0.908022
w 109 -108 -93 0.337943
w 110 109 94 0.102901
w 110 109 -94 0.622647
w 110 -109 94 0.224521
w 110 -109 -94 0.436536
w 111 110 95 0.374629
w 111 110 -95 0.961828
w 111 -110 95 0.154342
w 111 -110 -95 0.260592
w 112 111 96 0
w 112 111 -96 1
w 112 -111 96 0
w 112 -111 -96 1
w 113 97 0.550202
w 113 -97 0.955084
w 114 113 98 0.010293
w 114 113 -98 0.925872
w 114 -113 98 0.113774
w 114 -113 -98 0.397395
w 115 114 99 0
w 115 114 -99 0
w 115 -114 99 1
w 115 -114 -99 1
w 116 115 100 0.170401
w 116 115 -100 0.944957
w 116 -115 100 0.470342
w 116 -115 -100 0.273302
w 117 116 101 0.694863
w 117 116 -101 0.709838
w 117 -116 101 0.199886
w 117 -116 -101 0.0694924
w 118 117 102 0.354227
w 118 117 -102 0.330084
w 118 -117 102 0.707761
w 118 -117 -102 0.267035
w 119 118 103 0.598794
w 119 118 -103 0.411472
w 119 -118 103 0.568428
w 119 -118 -103 0.148995
w 120 119 104 0
w 120 119 -104 1
w 120 -119 104 0
w 120 -119 -104 0
w 121 120 105 0.737381
w 121 120 -105 0.751728
w 121 -120 105 0.749016
w 121 -120 -105 0.99976
w 122 121 106 0
w 122 121 -106 0
w 122 -121 106 1
w 122 -121 -106 0
w 123 122 107 0
w 123 122 -107 1
w 123 -122 107 1
w 123 -122 -107 1
w 124 123 108 0.425414
w 124 123 -108 0.143013
w 124 -123 108 0.532726
w 124 -123 -108 0.692449
w 125 124 109 0.13152
w 125 124 -109 0.103922
w 125 -124 109 0.508205
w 125 -124 -109 0.280515
w 126 125 110 1
w 126 125 -110 0
w 126 -125 110 0
w 126 -125 -110 0
w 127 126 111 0.401135
w 127 126 -111 0.745503
w 127 -126 111 0.500048
w 127 -126 -111 0.759876
w 128 127 112 0
w 128 127 -112 0
w 128 -127 112 1
w 128 -127 -112 0
w 129 113 0.115746
w 129 -113 0.266971
w 130 129 114 1
w 130 129 -114 1
w 130 -129 114 1
w 130 -129 -114 0
w 131 130 115 0.123928
w 131 130 -115 0.0114652
w 131 -130 115 0.756183
w 131 -130 -115 0.227849
w 132 131 116 0.036698
w 132 131 -116 0.698327
w 132 -131 116 0.541589
w 132 -131 -116 0.476502
w 133 132 117 0
w 133 132 -117 1
w 133 -132 117 0
w 133 -132 -117 0
w 134 133 118 0
w 134 133 -118 1
w 134 -133 118 0
w 134 -133 -118 0
w 135 134 119 1
w 135 134 -119 0
w 135 -134 119 1
w 135 -134 -119 1
w 136 135 120 0.356522
w 136 135 -120 0.958958
w 136 -135 120 0.60436
w 136 -135 -120 0.788001
w 137 136 121 1
w 137 136 -121 1
w 137 -136 121 1
w 137 -136 -121 0
w 138 137 122 0.0219034
w 138 137 -122 0.838105
w 138 -137 122 0.103371
w 138 -137 -122 0.498405
w 139 138 123 1
w 139 138 -123 0
w 139 -138 123 1
w 139 -138 -123 1
w 140 139 124 0.238505
w 140 139 -124 0.732113
w 140 -139 124 0.854214
w 140 -139 -124 0.654087
w 141 140 125 0.0996655
w 141 140 -125 0.0045457
w 141 -140 125 0.676932
w 141 -140 -125 0.612089
w 142 141 126 0
w 142 141 -126 1
w 142 -141 126 1
w 142 -141 -126 1
w 143 142 127 0
w 143 142 -127 0
w 143 -142 127 0
w 143 -142 -127 1
w 144 143 128 0
w 144 143 -128 1
w 144 -143 128 1
w 144 -143 -128 0
w 145 129 0
w 145 -129 1
w 146 145 130 0.599081
w 146 145 -130 0.554663
w 146 -145 130 0.112265
w 146 -145 -130 0.321515
w 147 146 131 0.844378
w 147 146 -131 0.175729
w 147 -146 131 0.447256
w 147 -146 -131 0.491028
w 148 147 132 0
w 148 147 -132 1
w 148 -147 132 0
w 148 -147 -132 0
w 149 148 133 0.103931
w 149 148 -133 0.961938
w 149 -148 133 0.470386
w 149 -148 -133 0.549402
w 150 149 134 1
w 150 149 -134 0
w 150 -149 134 0
w 150 -149 -134 1
w 151 150 135 0
w 151 150 -135 0
w 151 -150 135 1
w 151 -150 -135 0
w 152 151 136 1
w 152 151 -136 1
w 152 -151 136 0
w 152 -151 -136 0
w 153 152 137 0.839256
w 153 152 -137 0.262665
w 153 -152 137 0.697132
w 153 -152 -137 0.286512
w 154 153 138 0.972526
w 154 153 -138 0.738313
w 154 -153 138 0.921654
w 154 -153 -138 0.860009
w 155 154 139 0.725504
w 155 154 -139 0.96394
w 155 -154 139 0.51312
w 155 -154 -139 0.19589
w 156 155 140 0.536055
w 156 155 -140 0.374923
w 156 -155 140 0.49342
w 156 -155 -140 0.759764
w 157 156 141 0.926079
w 157 156 -141 0.0223529
w 157 -156 141 0.647642
w 157 -156 -141 0.309722
w 158 157 142 0.139066
w 158 157 -142 0.615745
w 158 -157 142 0.823049
w 158 -157 -142 0.185153
w 159 158 143 0
w 159 158 -143 1
w 159 -158 143 0
w 159 -158 -143 0
w 160 159 144 0
w 160 159 -144 0
w 160 -159 144 1
w 160 -159 -144 0
w 161 145 0.600416
w 161 -145 0.697549
w 162 161 146 0.113537
w 162 161 -146 0.89344
w 162 -161 146 0.3514
w 162 -161 -146 0.649592
w 163 162 147 1
w 163 162 -147 0
w 163 -162 147 1
w 163 -162 -147 1
w 164 163 148 1
w 164 163 -148 1
w 164 -163 148 1
w 164 -163 -148 0
w 165 164 149 0.877918
w 165 164 -149 0.0646064
w 165 -164 149 0.730398
w 165 -164 -149 0.22237
w 166 165 150 0
w 166 165 -150 0
w 166 -165 150 0
w 166 -165 -150 1
w 167 166 151 1
w 167 166 -151 1
w 167 -166 151 1
w 167 -166 -151 0
w 168 167 152 0.990239
w 168 167 -152 0.163123
w 168 -167 152 0.640521
w 168 -167 -152 0.341639
w 169 168 153 0.908884
w 169 168 -153 0.186459
w 169 -168 153 0.222072
w 169 -168 -153 0.00162943
w 170 169 154 0.653781
w 170 169 -154 0.742017
w 170 -169 154 0.0379788
w 170 -169 -154 0.70865
w 171 170 155 0.734345
w 171 170 -155 0.586568
w 171 -170 155 0.686076
w 171 -170 -155 0.464743
w 172 171 156 0.775092
w 172 171 -156 0.491839
w 172 -171 156 0.0728909
w 172 -171 -156 0.175029
w 173 172 157 0.350954
w 173 172 -157 0.624199
w 173 -172 157 0.618857
w 173 -172 -157 0.503135
w 174 173 158 0.365938
w 174 173 -158 0.493374
w 174 -173 158 0.83691
w 174 -173 -158 0.00645854
w 175 174 159 0.649625
w 175 174 -159 0.915342
w 175 -174 159 0.0214709
w 175 -174 -159 0.871697
w 176 175 160 0.978828
w 176 175 -160 0.525478
w 176 -175 160 0.658988
w 176 -175 -160 0.0168072
w 177 161 0
w 177 -161 1
w 178 177 162 0.820696
w 178 177 -162 0.966535
w 178 -177 162 0.215895
w 178 -177 -162 0.629634
w 179 178 163 0.707734
w 179 178 -163 0.702525
w 179 -178 163 0.916655
w 179 -178 -163 0.277059
w 180 179 164 0
w 180 179 -164 0
w 180 -179 164 1
w 180 -179 -164 0
w 181 180 165 1
w 181 180 -165 0
w 181 -180 165 0
w 181 -180 -165 1
w 182 181 166 0.183654
w 182 181 -166 0.90647
w 182 -181 166 0.572872
w 182 -181 -166 0.100625
w 183 182 167 0.0983497
w 183 182 -167 0.759614
w 183 -182 167 0.902106
w 183 -182 -167 0.332478
w 184 183 168 1
w 184 183 -168 0
w 184 -183 168 0
w 184 -183 -168 1
w 185 184 169 0.748233
w 185 184 -169 0.576887
w 185 -184 169 0.485332
w 185 -184 -169 0.664889
w 186 185 170 0.53881
w 186 185 -170 0.205744
w 186 -185 170 0.749861
w 186 -185 -170 0.0954234
w 187 186 171 0
w 187 186 -171 0
w 187 -186 171 1
w 187 -186 -171 1
w 188 187 172 1
w 188 187 -172 0
w 188 -187 172 0
w 188 -187 -172 0
w 189 188 173 0.822179
w 189 188 -173 0.844333
w 189 -188 173 0.323917
w 189 -188 -173 0.724284
w 190 189 174 0
w 190 189 -174 0
w 190 -189 174 0
w 190 -189 -174 1
w 191 190 175 1
w 191 190 -175 0
w 191 -190 175 0
w 191 -190 -175 0
w 192 191 176 0.677527
w 192 191 -176 0.136933
w 192 -191 176 0.989462
w 192 -191 -176 0.427388
w 193 177 1
w 193 -177 0
w 194 193 178 0
w 194 193 -178 0
w 194 -193 178 1
w 194 -193 -178 1
w 195 194 179 1
w 195 194 -179 1
w 195 -194 179 0
w 195 -194 -179 1
w 196 195 180 0
w 196 195 -180 1
w 196 -195 180 1
w 196 -195 -180 0
w 197 196 181 1
w 197 196 -181 1
w 197 -196 181 0
w 197 -196 -181 1
w 198 197 182 1
w 198 197 -182 0
w 198 -197 182 1
w 198 -197 -182 1
w 199 198 183 0
w 199 198 -183 0
w 199 -198 183 1
w 199 -198 -183 0
w 200 199 184 1
w 200 199 -184 0
w 200 -199 184 0
w 200 -199 -184 0
w 201 200 185 0
w 201 200 -185 1
w 201 -200 185 0
w 201 -200 -185 0
w 202 201 186 0.490223
w 202 201 -186 0.603418
w 202 -201 186 0.421954
w 202 -201 -186 0.312241
w 203 202 187 1
w 203 202 -187 0
w 203 -202 187 0
w 203 -202 -187 0
w 204 203 188 0.768481
w 204 203 -188 0.546112
w 204 -203 188 0.591948
w 204 -203 -188 0.476638
w 205 204 189 0.591795
w 205 204 -189 0.174258
w 205 -204 189 0.0072322
w 205 -204 -189 0.823998
w 206 205 190 1
w 206 205 -190 1
w 206 -205 190 0
w 206 -205 -190 0
w 207 206 191 0
w 207 206 -191 0
w 207 -206 191 1
w 207 -206 -191 0
w 208 207 192 0.345747
w 208 207 -192 0.65035
w 208 -207 192 0.414165
w 208 -207 -192 0.767702
w 209 193 0.452596
w 209 -193 0.458717
w 210 209 194 0
w 210 209 -194 0
w 210 -209 194 0
w 210 -209 -194 1
w 211 210 195 1
w 211 210 -195 1
w 211 -210 195 0
w 211 -210 -195 1
w 212 211 196 0.163607
w 212 211 -196 0.997739
w 212 -211 196 0.672399
w 212 -211 -196 0.597573
w 213 212 197 1
w 213 212 -197 1
w 213 -212 197 0
w 213 -212 -197 1
w 214 213 198 0.743949
w 214 213 -198 0.254569
w 214 -213 198 0.210744
w 214 -213 -198 0.394299
w 215 214 199 0.978445
w 215 214 -199 0.35689
w 215 -214 199 0.12133
w 215 -214 -199 0.437163
w 216 215 200 0.417967
w 216 215 -200 0.102653
w 216 -215 200 0.939589
w 216 -215 -200 0.483086
w 217 216 201 1
w 217 216 -201 1
w 217 -216 201 0
w 217 -216 -201 0
w 218 217 202 0.870646
w 218 217 -202 0.19062
w 218 -217 202 0.738596
w 218 -217 -202 0.543045
w 219 218 203 0.00730597
w 219 218 -203 0.708514
w 219 -218 203 0.837877
w 219 -218 -203 0.591128
w 220 219 204 1
w 220 219 -204 1
w 220 -219 204 0
w 220 -219 -204 1
w 221 220 205 0.0756393
w 221 220 -205 0.892063
w 221 -220 205 0.0862664
w 221 -220 -205 0.196969
w 222 221 206 1
w 222 221 -206 1
w 222 -221 206 1
w 222 -221 -206 0
w 223 222 207 0
w 223 222 -207 1
w 223 -222 207 1
w 223 -222 -207 1
w 224 223 208 0.705614
w 224 223 -208 0.714613
w 224 -223 208 0.602318
w 224 -223 -208 0.248659
w 225 209 0.609624
w 225 -209 0.957173
w 226 225 210 1
w 226 225 -210 1
w 226 -225 210 0
w 226 -225 -210 0
w 227 226 211 0.957176
w 227 226 -211 0.265206
w 227 -226 211 0.592053
w 227 -226 -211 0.849239
w 228 227 212 0
w 228 227 -212 0
w 228 -227 212 0
w 228 -227 -212 1
w 229 228 213 0.0310389
w 229 228 -213 0.501982
w 229 -228 213 0.356478
w 229 -228 -213 0.52802
w 230 229 214 0.191446
w 230 229 -214 0.052014
w 230 -229 214 0.488569
w 230 -229 -214 0.89706
w 231 230 215 0.0908868
w 231 230 -215 0.145719
w 231 -230 215 0.269434
w 231 -230 -215 0.70051
w 232 231 216 0
w 232 231 -216 1
w 232 -231 216 1
w 232 -231 -216 0
w 233 232 217 1
w 233 232 -217 0
w 233 -232 217 0
w 233 -232 -217 0
w 234 233 218 1
w 234 233 -218 1
w 234 -233 218 1
w 234 -233 -218 0
w 235 234 219 0.248901
w 235 234 -219 0.306269
w 235 -234 219 0.0158324
w 235 -234 -219 0.605379
w 236 235 220 0.640679
w 236 235 -220 0.796825
w 236 -235 220 0.886303
w 236 -235 -220 0.129248
w 237 236 221 0.65293
w 237 236 -221 0.220135
w 237 -236 221 0.839604
w 237 -236 -221 0.922364
w 238 237 222 0.942496
w 238 237 -222 0.532482
w 238 -237 222 0.821908
w 238 -237 -222 0.154897
w 239 238 223 1
w 239 238 -223 1
w 239 -238 223 0
w 239 -238 -223 1
w 240 239 224 0
w 240 239 -224 1
w 240 -239 224 1
w 240 -239 -224 0
w 241 225 0.144556
w 241 -225 0.596564
w 242 241 226 0.749935
w 242 241 -226 0.430853
w 242 -241 226 0.484832
w 242 -241 -226 0.54676
w 243 242 227 0
w 243 242 -227 1
w 243 -242 227 0
w 243 -242 -227 1
w 244 243 228 0
w 244 243 -228 1
w 244 -243 228 1
w 244 -243 -228 0
w 245 244 229 0.177643
w 245 244 -229 0.611089
w 245 -244 229 0.835769
w 245 -244 -229 0.061354
w 246 245 230 0
w 246 245 -230 1
w 246 -245 230 1
w 246 -245 -230 0
w 247 246 231 0.560851
w 247 246 -231 0.102426
w 247 -246 231 0.408725
w 247 -246 -231 0.705407
w 248 247 232 0.252878
w 248 247 -232 0.455342
w 248 -247 232 0.129843
w 248 -247 -232 0.73771
w 249 248 233 0
w 249 248 -233 1
w 249 -248 233 0
w 249 -248 -233 0
w 250 249 234 0
w 250 249 -234 0
w 250 -249 234 0
w 250 -249 -234 1
w 251 250 235 0.517639
w 251 250 -235 0.523385
w 251 -250 235 0.345556
w 251 -250 -235 0.353409
w 252 251 236 0.753654
w 252 251 -236 0.150474
w 252 -251 236 0.850673
w 252 -251 -236 0.41885
w 253 252 237 0.431077
w 253 252 -237 0.979702
w 253 -252 237 0.0650313
w 253 -252 -237 0.839801
w 254 253 238 0.764021
w 254 253 -238 0.0926788
w 254 -253 238 0.14045
w 254 -253 -238 0.893864
w 255 254 239 0.142552
w 255 254 -239 0.340863
w 255 -254 239 0.18218
w 255 -254 -239 0.385299
w 256 255 240 0.368187
w 256 255 -240 0.708296
w 256 -255 240 0.0674827
w 256 -255 -240 0.309057